This is Ipopt version 3.12.13, running with linear solver ma57.

Number of nonzeros in equality constraint Jacobian...:        0
Number of nonzeros in inequality constraint Jacobian.:    21744
Number of nonzeros in Lagrangian Hessian.............:       21

Total number of variables............................:        6
                     variables with only lower bounds:        0
                variables with lower and upper bounds:        6
                     variables with only upper bounds:        0
Total number of equality constraints.................:        0
Total number of inequality constraints...............:     3624
        inequality constraints with only lower bounds:        0
   inequality constraints with lower and upper bounds:        0
        inequality constraints with only upper bounds:     3624

iter    objective    inf_pr   inf_du lg(mu)  ||d||  lg(rg) alpha_du alpha_pr  ls
   0  2.9427730e-01 0.00e+00 6.12e+00   0.0 0.00e+00    -  0.00e+00 0.00e+00   0
   1  2.9707248e-01 0.00e+00 3.77e-02  -1.6 2.80e-02    -  9.78e-01 1.00e+00f  1
   2  3.0127958e-01 0.00e+00 2.21e+00  -1.1 7.86e-02    -  9.95e-01 4.17e-01h  2
   3  3.0020795e-01 0.00e+00 6.60e-02  -1.1 1.22e-02    -  1.00e+00 1.00e+00h  1
   4  2.9996522e-01 0.00e+00 1.51e-07  -1.8 1.62e-03    -  1.00e+00 1.00e+00h  1
   5  2.9800990e-01 0.00e+00 1.95e-01  -2.7 1.36e-02    -  8.44e-01 1.00e+00f  1
   6  2.7546319e-01 0.00e+00 6.39e-02  -2.7 4.36e-01    -  8.02e-01 4.68e-01h  1
   7  2.6010998e-01 0.00e+00 7.33e-02  -3.4 3.85e-01    -  9.88e-01 5.17e-01h  1
   8  2.5902062e-01 0.00e+00 4.08e-05  -4.0 6.54e-02    -  1.00e+00 1.00e+00h  1
   9  2.5808245e-01 0.00e+00 3.69e-03 -10.0 7.72e-02    -  3.42e-01 9.65e-01h  1
iter    objective    inf_pr   inf_du lg(mu)  ||d||  lg(rg) alpha_du alpha_pr  ls
  10  2.5759347e-01 0.00e+00 1.45e-07  -5.2 1.11e-01    -  1.00e+00 1.00e+00h  1
  11  2.5751658e-01 0.00e+00 4.30e-11  -5.4 6.54e-02    -  1.00e+00 1.00e+00h  1
  12  2.5750018e-01 0.00e+00 2.53e-05  -7.5 2.63e-03    -  9.96e-01 9.49e-01h  1
  13  2.5749906e-01 0.00e+00 4.35e-11 -11.0 3.39e-04    -  1.00e+00 1.00e+00h  1

Number of Iterations....: 13

                                   (scaled)                 (unscaled)
Objective...............:   2.5749906356420932e-01    2.5749906356420932e-01
Dual infeasibility......:   4.3473620753645137e-11    4.3473620753645137e-11
Constraint violation....:   0.0000000000000000e+00    0.0000000000000000e+00
Complementarity.........:   2.2893357866152633e-09    2.2893357866152633e-09
Overall NLP error.......:   2.2893357866152633e-09    2.2893357866152633e-09


Number of objective function evaluations             = 17
Number of objective gradient evaluations             = 14
Number of equality constraint evaluations            = 0
Number of inequality constraint evaluations          = 17
Number of equality constraint Jacobian evaluations   = 0
Number of inequality constraint Jacobian evaluations = 14
Number of Lagrangian Hessian evaluations             = 13
Total CPU secs in IPOPT (w/o function evaluations)   =      0.026
Total CPU secs in NLP function evaluations           =      0.021

EXIT: Optimal Solution Found.
